NAME : amz2797.126671_125171.tour
COMMENT : Cost = 126671_125171
COMMENT : Found by LKH-AMZ [Keld Helsgaun] Sun May 11 14:11:31 2025
COMMENT : TW viol.: 0 #: 0
TYPE : TOUR
DIMENSION : 150
TOUR_SECTION
78
45
97
35
41
146
33
89
133
142
104
50
140
19
116
124
81
32
107
3
128
76
69
12
134
121
79
80
129
94
122
20
44
67
46
73
61
135
86
17
24
95
49
7
84
117
63
136
65
101
120
109
15
38
100
56
13
68
112
37
48
111
47
96
18
74
149
39
143
22
145
4
92
110
88
132
58
99
23
30
127
87
126
144
31
53
103
55
113
57
59
66
9
70
141
83
98
123
42
72
10
106
118
138
14
36
108
62
54
43
77
34
85
148
2
91
51
139
90
125
27
52
11
16
25
8
93
28
115
102
29
1
71
131
6
105
75
26
5
21
137
119
130
64
150
147
60
82
40
114
-1
EOF
